N = 6;
Capacity = 9;
ItemsPerCustomer = [3, 7, 6, 6, 5, 4];
maxItemsPerCustomer = 7;
binCapacity = 50;
SizesOfItems = [|
  38, 33, 31, 0, 0, 0, 0
| 28, 27, 23, 12, 12, 11, 10
| 29, 27, 26, 17, 16, 10, 0
| 32, 32, 30, 27, 23, 16, 0
| 35, 28, 24, 18, 17, 0, 0
| 37, 35, 34, 10, 0, 0, 0
|];
Distance = [|
  0, 52, 45, 49, 48, 33, 46
| 52, 0, 7, 13, 100, 72, 87
| 45, 7, 0, 13, 93, 66, 81
| 49, 13, 13, 0, 97, 63, 78
| 48, 100, 93, 97, 0, 49, 49
| 33, 72, 66, 63, 49, 0, 15
| 46, 87, 81, 78, 49, 15, 0
|];
